0    23   428
1     4    89
2    17   364
3    10   218
4    19   148
5     7    46
6     3   359
7     7   462
8    13   245
9    17   425
10     2   181
11     7   140
12     8   128
13     7   115
14    14   128
15    21   142
16     8   469
17     6   472
18    10   180
19     9   437
20     1   461
21     6   341
22    24    79
23    24   102